(set-logic QF_S)
(declare-fun var0 () String)
(assert (str.in.re var0 (re.++ (re.union (re.* (str.to.re "0")) (re.* (str.to.re "11"))) (re.++ (re.union (re.+ (str.to.re "222")) (re.+ (str.to.re "33"))) (re.++ (re.+ (re.* (str.to.re "44"))) (re.++ (re.union (re.* (str.to.re "555")) (re.* (str.to.re "666"))) (re.++ (re.+ (re.union (str.to.re "777") (str.to.re "888"))) (re.++ (re.* (re.+ (str.to.re "999"))) (re.++ (re.+ (re.+ (str.to.re "a"))) (re.++ (re.union (re.+ (str.to.re "bb")) (re.+ (str.to.re "ccc"))) (re.++ (re.union (re.union (str.to.re "ddd") (str.to.re "ee")) (re.union (str.to.re "ff") (str.to.re "g"))) (re.* (re.union (str.to.re "hh") (str.to.re "ii"))))))))))))))
(assert (str.in.re var0 (re.++ (re.union (re.+ (str.to.re "000")) (re.+ (str.to.re "111"))) (re.++ (re.* (re.union (str.to.re "222") (str.to.re "3"))) (re.++ (re.union (re.union (str.to.re "44") (str.to.re "55")) (re.union (str.to.re "666") (str.to.re "777"))) (re.++ (re.+ (re.* (str.to.re "888"))) (re.++ (re.* (re.* (str.to.re "9"))) (re.++ (re.+ (re.+ (str.to.re "aaa"))) (re.++ (re.+ (re.union (str.to.re "b") (str.to.re "cc"))) (re.++ (re.+ (re.+ (str.to.re "ddd"))) (re.++ (re.* (re.union (str.to.re "eee") (str.to.re "ff"))) (re.* (re.* (str.to.re "g"))))))))))))))
(assert (str.in.re var0 (re.++ (re.* (re.+ (str.to.re "000"))) (re.++ (re.union (re.+ (str.to.re "11")) (re.+ (str.to.re "2"))) (re.++ (re.union (re.+ (str.to.re "3")) (re.+ (str.to.re "44"))) (re.++ (re.union (re.union (str.to.re "5") (str.to.re "666")) (re.union (str.to.re "777") (str.to.re "8"))) (re.++ (re.+ (re.+ (str.to.re "9"))) (re.++ (re.+ (re.union (str.to.re "a") (str.to.re "bb"))) (re.++ (re.union (re.union (str.to.re "c") (str.to.re "dd")) (re.union (str.to.re "ee") (str.to.re "fff"))) (re.++ (re.* (re.* (str.to.re "g"))) (re.++ (re.+ (re.* (str.to.re "hhh"))) (re.* (re.+ (str.to.re "iii"))))))))))))))
(assert (str.in.re var0 (re.++ (re.* (re.* (str.to.re "00"))) (re.++ (re.+ (re.union (str.to.re "1") (str.to.re "22"))) (re.++ (re.+ (re.+ (str.to.re "33"))) (re.++ (re.+ (re.+ (str.to.re "444"))) (re.++ (re.+ (re.+ (str.to.re "55"))) (re.++ (re.union (re.* (str.to.re "666")) (re.* (str.to.re "7"))) (re.++ (re.+ (re.union (str.to.re "888") (str.to.re "9"))) (re.++ (re.union (re.+ (str.to.re "a")) (re.+ (str.to.re "bbb"))) (re.++ (re.union (re.* (str.to.re "c")) (re.* (str.to.re "dd"))) (re.* (re.* (str.to.re "e"))))))))))))))
(assert (str.in.re var0 (re.++ (re.+ (re.* (str.to.re "00"))) (re.++ (re.+ (re.* (str.to.re "1"))) (re.++ (re.union (re.* (str.to.re "222")) (re.* (str.to.re "333"))) (re.++ (re.union (re.union (str.to.re "4") (str.to.re "555")) (re.union (str.to.re "6") (str.to.re "77"))) (re.++ (re.* (re.* (str.to.re "8"))) (re.++ (re.* (re.* (str.to.re "99"))) (re.++ (re.+ (re.+ (str.to.re "a"))) (re.++ (re.union (re.+ (str.to.re "bb")) (re.+ (str.to.re "cc"))) (re.++ (re.* (re.union (str.to.re "dd") (str.to.re "ee"))) (re.union (re.* (str.to.re "f")) (re.* (str.to.re "g"))))))))))))))
(assert (str.in.re var0 (re.++ (re.+ (re.+ (str.to.re "00"))) (re.++ (re.union (re.* (str.to.re "111")) (re.* (str.to.re "22"))) (re.++ (re.union (re.+ (str.to.re "333")) (re.+ (str.to.re "44"))) (re.++ (re.union (re.union (str.to.re "55") (str.to.re "666")) (re.union (str.to.re "7") (str.to.re "888"))) (re.++ (re.+ (re.union (str.to.re "99") (str.to.re "aa"))) (re.++ (re.union (re.+ (str.to.re "bb")) (re.+ (str.to.re "c"))) (re.++ (re.* (re.+ (str.to.re "dd"))) (re.++ (re.* (re.union (str.to.re "e") (str.to.re "f"))) (re.++ (re.* (re.union (str.to.re "g") (str.to.re "hh"))) (re.+ (re.union (str.to.re "iii") (str.to.re "j"))))))))))))))
(assert (str.in.re var0 (re.++ (re.* (re.* (str.to.re "00"))) (re.++ (re.+ (re.* (str.to.re "11"))) (re.++ (re.+ (re.union (str.to.re "2") (str.to.re "33"))) (re.++ (re.+ (re.+ (str.to.re "4"))) (re.++ (re.+ (re.* (str.to.re "5"))) (re.++ (re.union (re.+ (str.to.re "666")) (re.+ (str.to.re "777"))) (re.++ (re.* (re.union (str.to.re "8") (str.to.re "999"))) (re.++ (re.union (re.+ (str.to.re "aa")) (re.+ (str.to.re "bbb"))) (re.++ (re.+ (re.+ (str.to.re "c"))) (re.+ (re.+ (str.to.re "ddd"))))))))))))))
(check-sat)